(set-logic HORN)
(set-info :source |
    Benchmark: C_VC
    Output by Princess (http://www.philipp.ruemmer.org/princess.shtml)
|)
(set-info :status sat)
(declare-heap Heap Addr HeapObject
 defObj
 ((HeapObject 0) (node 0)) (
  (
   (O_Int (getInt Int))
   (O_Addr (getAddr Addr))
   (O_node (getnode node))
   (defObj)
  )
  (
   (node (data Int) (next Addr))
  )
))
(declare-fun inv_main10 (Heap Int Int Int Int Addr) Bool)
(declare-fun inv_main17 (Heap Int Int Int Int Addr Int Addr) Bool)
(declare-fun inv_main20 (Heap Int Int Int Int Addr Int Addr Int) Bool)
(declare-fun inv_main23 (Heap Int Int Int Int Addr Int Addr) Bool)
(declare-fun inv_main25 (Heap Int Int Int Int Addr Addr) Bool)
(declare-fun inv_main38 (Heap Int Int Addr Int Int Int Int Int Int Addr) Bool)
(declare-fun inv_main4 (Heap Int Int) Bool)
(declare-fun inv_main41 (Heap Int Int Addr Int Int Int Int Int Int Addr Int) Bool)
(declare-fun inv_main44 (Heap Int Int Addr Int Int Int Int Int Int Addr) Bool)
(declare-fun inv_main48 (Heap Int Int Addr Int Int Int Int Int Addr Addr Addr) Bool)
(declare-fun inv_main51 (Heap Int Int Addr Int Int Int Int Int Addr Addr Addr) Bool)
(declare-fun inv_main54 (Heap Int Int Addr Int Int Int Int Int Addr Addr Addr) Bool)
(declare-fun inv_main55 (Heap Int Int Addr Int Int Int Int Int Addr Addr Addr) Bool)
(declare-fun inv_main59 (Heap Int Int Addr Int Int Addr Int) Bool)
(declare-fun inv_main60 (Heap Int Int Addr Int Int Addr Int) Bool)
(declare-fun inv_main61 (Heap Int Int Addr Int Int Addr Int Addr) Bool)
(declare-fun inv_main66 (Heap Int Int Addr Int Int Addr Int) Bool)
(declare-fun inv_main71 (Heap Int Int Addr Int Int Addr Int) Bool)
(declare-fun inv_main73 (Heap Int Int Addr Int Int Addr Int) Bool)
(declare-fun inv_main74 (Heap Int Int Addr Int Int Addr Int Addr) Bool)
(declare-fun inv_main86 (Heap Int Int Addr Int Int Addr Int Addr) Bool)
(declare-fun inv_main89 (Heap Int Int Addr Int Int Addr Int) Bool)
(assert (forall ((var0 Heap)) (or (not (= var0 emptyHeap)) (inv_main4 var0 2 1))))
(assert (forall ((var0 Addr) (var1 Int) (var2 Heap) (var3 Int) (var4 Heap) (var5 Int) (var6 Int) (var7 Addr) (var8 Int) (var9 Int) (var10 Addr) (var11 Addr) (var12 Int) (var13 Int) (var14 Int) (var15 Int)) (or (not (and (inv_main23 var4 var6 var12 var1 var5 var10 var15 var11) (and (and (and (and (and (and (and (= var2 (write var4 var11 (O_node (node var15 (next (getnode (read var4 var11))))))) (= var3 var6)) (= var13 var12)) (= var8 var1)) (= var14 var5)) (= var7 var10)) (= var9 var15)) (= var0 var11)))) (inv_main25 var2 var3 var13 var8 var14 var7 var0))))
(assert (forall ((var0 Addr) (var1 Int) (var2 Int) (var3 Int) (var4 Heap) (var5 Int) (var6 Int) (var7 Int) (var8 Int) (var9 Addr) (var10 Int)) (or (not (inv_main38 var4 var10 var7 var0 var6 var8 var5 var3 var2 var1 var9)) (inv_main44 (write var4 var9 (O_node (node (data (getnode (read var4 var9))) nullAddr))) var10 var7 var0 var6 var8 var5 var3 var2 var1 var9))))
(assert (forall ((var0 Int) (var1 Heap) (var2 Addr) (var3 Addr) (var4 Int) (var5 Int) (var6 Int) (var7 Int) (var8 Int)) (or (not (inv_main20 var1 var8 var4 var0 var5 var2 var7 var3 var6)) (inv_main20 var1 var8 var4 var0 var5 var2 var7 var3 var6))))
(assert (forall ((var0 node) (var1 Int) (var2 Int) (var3 Heap) (var4 Heap) (var5 Int) (var6 Int) (var7 Int) (var8 Int) (var9 Addr) (var10 Int) (var11 Int) (var12 Addr) (var13 Int) (var14 Addr)) (or (not (and (inv_main10 var4 var8 var13 var1 var7 var12) (and (and (= nullAddr var14) (and (and (and (and (and (and (and (= var3 (newHeap (alloc var4 (O_node var0)))) (= var5 var8)) (= var11 var13)) (= var2 var1)) (= var10 var7)) (= var9 var12)) (= var6 var7)) (= var14 (newAddr (alloc var4 (O_node var0)))))) (<= 0 (+ var1 (- 1)))))) (inv_main20 var3 var5 var11 var2 var10 var9 var6 var14 1))))
(assert (forall ((var0 Addr) (var1 Int) (var2 Heap) (var3 Int) (var4 Int) (var5 Int) (var6 Addr) (var7 Int)) (or (not (and (inv_main59 var2 var7 var4 var0 var3 var5 var6 var1) (= var3 (data (getnode (read var2 var6)))))) (inv_main66 var2 var7 var4 var0 var3 var5 var6 var1))))
(assert (forall ((var0 Addr) (var1 Int) (var2 Heap) (var3 Int) (var4 Int) (var5 Int) (var6 Addr) (var7 Addr) (var8 Int)) (or (not (and (inv_main61 var2 var8 var4 var0 var3 var5 var6 var1 var7) (and (or (= var7 nullAddr) (= (+ var1 1) var5)) (= var4 (data (getnode (read var2 var6))))))) (inv_main59 var2 var8 var4 var0 var3 var5 var7 (+ var1 1)))))
(assert (forall ((var0 Int) (var1 Int) (var2 Addr) (var3 Int) (var4 Heap) (var5 Int) (var6 Heap) (var7 Addr) (var8 Int) (var9 Int) (var10 Int) (var11 Int) (var12 Addr) (var13 Int) (var14 Addr) (var15 Int) (var16 Int) (var17 Addr) (var18 Int) (var19 Int) (var20 Int)) (or (not (and (inv_main54 var6 var11 var19 var12 var18 var9 var8 var3 var15 var17 var14 var7) (and (or (= var2 nullAddr) (= 0 var16)) (and (and (and (and (and (and (and (and (= var4 (write var6 var17 (O_node (node (data (getnode (read var6 var17))) var7)))) (= var5 var11)) (= var13 var19)) (= var2 var12)) (= var10 var18)) (= var16 var9)) (= var0 var8)) (= var20 var3)) (= var1 var15))))) (inv_main59 var4 var5 var13 var2 var10 var16 var2 0))))
(assert (forall ((var0 Addr) (var1 Int) (var2 Heap) (var3 Int) (var4 Int) (var5 Int) (var6 Int) (var7 Int) (var8 node) (var9 Int) (var10 Addr) (var11 Int) (var12 Addr) (var13 Int) (var14 Heap)) (or (not (and (inv_main10 var2 var5 var13 var1 var3 var12) (and (and (not (= nullAddr var10)) (and (and (and (and (and (and (and (= var14 (newHeap (alloc var2 (O_node var8)))) (= var6 var5)) (= var4 var13)) (= var11 var1)) (= var7 var3)) (= var0 var12)) (= var9 var3)) (= var10 (newAddr (alloc var2 (O_node var8)))))) (<= 0 (+ var1 (- 1)))))) (inv_main17 var14 var6 var4 var11 var7 var0 var9 var10))))
(assert (forall ((var0 Int) (var1 Addr) (var2 Int) (var3 Heap) (var4 Int) (var5 Addr) (var6 Int) (var7 Int) (var8 Int) (var9 Int) (var10 Addr) (var11 Heap) (var12 Int) (var13 Addr) (var14 Addr) (var15 Int) (var16 Int) (var17 Addr) (var18 Int) (var19 Addr) (var20 Addr) (var21 Heap) (var22 Int) (var23 Addr) (var24 Addr) (var25 Int) (var26 Addr) (var27 Int) (var28 Int)) (or (not (and (inv_main86 var3 var7 var28 var24 var27 var4 var20 var16 var10) (and (not (= var1 nullAddr)) (and (and (and (and (and (and (and (and (and (and (= var11 var3) (= var8 var7)) (= var6 var28)) (= var23 var24)) (= var0 var27)) (= var18 var4)) (= var26 var20)) (= var12 var16)) (= var5 var10)) (= var14 (next (getnode (read var3 var10))))) (and (and (and (and (and (and (and (and (and (= var21 (write var11 var5 defObj)) (= var25 var8)) (= var9 var6)) (= var17 var23)) (= var15 var0)) (= var2 var18)) (= var13 var26)) (= var22 var12)) (= var19 var5)) (= var1 var14)))))) (inv_main86 var21 var25 var9 var17 var15 var2 var13 var22 var1))))
(assert (forall ((var0 Addr) (var1 Int) (var2 Heap) (var3 Int) (var4 Int) (var5 Int) (var6 Addr) (var7 Int)) (or (not (and (inv_main71 var2 var7 var4 var0 var3 var5 var6 var1) (and (not (= var0 nullAddr)) (and (= var1 (+ 1 var7)) (= var6 nullAddr))))) (inv_main86 var2 var7 var4 var0 var3 var5 var6 var1 var0))))
(assert (forall ((var0 Addr) (var1 Int) (var2 Int) (var3 Int) (var4 Int) (var5 Heap) (var6 Int) (var7 Int) (var8 Int) (var9 Int) (var10 Addr) (var11 Int)) (or (not (inv_main41 var5 var11 var8 var0 var7 var9 var6 var3 var2 var1 var10 var4)) (inv_main41 var5 var11 var8 var0 var7 var9 var6 var3 var2 var1 var10 var4))))
(assert (forall ((var0 Int) (var1 Int) (var2 Int) (var3 Int) (var4 Heap) (var5 Int) (var6 Heap) (var7 Int) (var8 node) (var9 Int) (var10 Int) (var11 Addr) (var12 Int) (var13 Int) (var14 Int) (var15 Addr) (var16 Int) (var17 Heap) (var18 Int) (var19 Int) (var20 Addr) (var21 Int) (var22 Int) (var23 Addr) (var24 Int)) (or (not (and (inv_main10 var4 var9 var18 var0 var7 var15) (and (and (and (= nullAddr var11) (and (and (and (and (and (and (and (and (and (and (= var17 (newHeap (alloc var6 (O_node var8)))) (= var22 var2)) (= var12 var16)) (= var23 var20)) (= var14 var13)) (= var21 var3)) (= var19 3)) (= var1 var13)) (= var5 var3)) (= var10 var13)) (= var11 (newAddr (alloc var6 (O_node var8)))))) (and (and (and (and (and (= var6 var4) (= var2 var9)) (= var16 var18)) (= var20 var15)) (= var13 5)) (and (and (and (and (<= 0 (+ (+ 2 (* (- 1) (+ var9 (* (- 2) var24)))) (- 1))) (<= 0 (+ (+ 2 (* 1 (+ var9 (* (- 2) var24)))) (- 1)))) (or (not (<= 0 (+ (+ var9 (* (- 2) var24)) (- 1)))) (<= 0 (+ var9 (- 1))))) (or (not (<= 0 (+ (* (- 1) (+ var9 (* (- 2) var24))) (- 1)))) (<= 0 (+ (* (- 1) var9) (- 1))))) (= var3 var24)))) (not (<= 0 (+ var0 (- 1))))))) (inv_main41 var17 var22 var12 var23 var14 var21 var19 var1 var5 var10 var11 1))))
(assert (forall ((var0 Addr) (var1 Int) (var2 Heap) (var3 Int) (var4 Int) (var5 Int) (var6 Addr) (var7 Addr) (var8 Int)) (or (not (and (inv_main61 var2 var8 var4 var0 var3 var5 var6 var1 var7) (and (and (not (= var7 nullAddr)) (not (= (+ var1 1) var5))) (= var4 (data (getnode (read var2 var6))))))) (inv_main60 var2 var8 var4 var0 var3 var5 var7 (+ var1 1)))))
(assert (forall ((var0 Int) (var1 Int) (var2 Addr) (var3 Int) (var4 Heap) (var5 Int) (var6 Heap) (var7 Addr) (var8 Int) (var9 Int) (var10 Int) (var11 Int) (var12 Addr) (var13 Int) (var14 Addr) (var15 Int) (var16 Int) (var17 Addr) (var18 Int) (var19 Int) (var20 Int)) (or (not (and (inv_main54 var6 var11 var19 var12 var18 var9 var8 var3 var15 var17 var14 var7) (and (and (not (= var2 nullAddr)) (not (= 0 var16))) (and (and (and (and (and (and (and (and (= var4 (write var6 var17 (O_node (node (data (getnode (read var6 var17))) var7)))) (= var5 var11)) (= var13 var19)) (= var2 var12)) (= var10 var18)) (= var16 var9)) (= var0 var8)) (= var20 var3)) (= var1 var15))))) (inv_main60 var4 var5 var13 var2 var10 var16 var2 0))))
(assert (forall ((var0 Int) (var1 Int) (var2 Addr) (var3 Addr) (var4 Heap) (var5 Int) (var6 Addr) (var7 Int) (var8 Int) (var9 Int) (var10 Addr) (var11 Int) (var12 Int) (var13 Int) (var14 Int) (var15 Addr) (var16 Addr) (var17 Addr) (var18 Addr) (var19 Int) (var20 Addr) (var21 Int) (var22 Int) (var23 Heap) (var24 Int)) (or (not (and (inv_main51 var4 var12 var22 var16 var21 var9 var7 var1 var19 var20 var18 var6) (and (and (and (and (and (and (and (and (and (and (and (and (= var23 var4) (= var14 var12)) (= var5 var22)) (= var2 var16)) (= var24 var21)) (= var0 var9)) (= var8 var7)) (= var13 var1)) (= var11 var19)) (= var15 var20)) (= var17 var18)) (= var10 var6)) (= var3 (next (getnode (read var4 var6))))))) (inv_main48 var23 var14 var5 var2 var24 var0 var8 var13 (+ var11 (- 1)) var15 var17 var3))))
(assert (forall ((var0 Addr) (var1 Int) (var2 Int) (var3 Addr) (var4 Heap) (var5 Int) (var6 Int) (var7 Int) (var8 Int) (var9 Addr) (var10 Int) (var11 Int) (var12 Addr) (var13 Int) (var14 Int) (var15 Int) (var16 Addr) (var17 Int) (var18 Heap) (var19 Int) (var20 Int) (var21 Int) (var22 Heap) (var23 Int) (var24 Int) (var25 Addr) (var26 Int) (var27 Int) (var28 Int) (var29 Int) (var30 Addr) (var31 Int) (var32 Int)) (or (not (and (inv_main44 var4 var10 var29 var25 var28 var7 var6 var2 var11 var1 var16) (and (and (and (and (and (and (and (and (and (and (and (= var22 var18) (= var24 var5)) (= var19 var27)) (= var0 var12)) (= var13 var15)) (= var20 var14)) (= var32 var26)) (= var21 var23)) (= var17 var8)) (= var30 var9)) (= var3 nullAddr)) (and (and (and (and (and (and (and (and (and (and (= var18 (write var4 var16 (O_node (node var1 (next (getnode (read var4 var16))))))) (= var5 var10)) (= var27 var29)) (= var12 var25)) (= var15 var28)) (= var14 var7)) (= var26 var6)) (= var23 var2)) (= var8 var11)) (= var31 var1)) (= var9 var16))))) (inv_main48 var22 var24 var19 var0 var13 var20 var32 var21 var17 var30 var3 var0))))
(assert (forall ((var0 Addr) (var1 Addr) (var2 Int) (var3 Int) (var4 Addr) (var5 Heap) (var6 Addr) (var7 Int) (var8 Int) (var9 Int) (var10 Int) (var11 Int)) (or (not (and (inv_main48 var5 var11 var9 var0 var8 var10 var7 var3 var2 var6 var1 var4) (and (not (= var1 nullAddr)) (not (<= 0 (+ var2 (- 1))))))) (inv_main55 var5 var11 var9 var0 var8 var10 var7 var3 var2 var6 var1 var4))))
(assert (forall ((var0 Addr) (var1 Int) (var2 Heap) (var3 Int) (var4 Int) (var5 Int) (var6 Addr) (var7 Addr) (var8 Int)) (or (not (and (inv_main61 var2 var8 var4 var0 var3 var5 var6 var1 var7) (not (= var4 (data (getnode (read var2 var6))))))) (inv_main89 var2 var8 var4 var0 var3 var5 var6 var1))))
(assert (forall ((var0 Addr) (var1 Int) (var2 Heap) (var3 Int) (var4 Int) (var5 Int) (var6 Addr) (var7 Addr) (var8 Int)) (or (not (and (inv_main74 var2 var8 var4 var0 var3 var5 var6 var1 var7) (not (= var4 (data (getnode (read var2 var6))))))) (inv_main89 var2 var8 var4 var0 var3 var5 var6 var1))))
(assert (forall ((var0 Addr) (var1 Int) (var2 Heap) (var3 Int) (var4 Int) (var5 Int) (var6 Addr) (var7 Int)) (or (not (and (inv_main59 var2 var7 var4 var0 var3 var5 var6 var1) (not (= var3 (data (getnode (read var2 var6))))))) (inv_main89 var2 var7 var4 var0 var3 var5 var6 var1))))
(assert (forall ((var0 Addr) (var1 Int) (var2 Heap) (var3 Int) (var4 Int) (var5 Int) (var6 Addr) (var7 Int)) (or (not (and (inv_main71 var2 var7 var4 var0 var3 var5 var6 var1) (and (not (= var1 (+ 1 var7))) (= var6 nullAddr)))) (inv_main89 var2 var7 var4 var0 var3 var5 var6 var1))))
(assert (forall ((var0 Addr) (var1 Int) (var2 Heap) (var3 Int) (var4 Int) (var5 Int) (var6 Addr) (var7 Int)) (or (not (inv_main73 var2 var7 var4 var0 var3 var5 var6 var1)) (inv_main74 var2 var7 var4 var0 var3 var5 var6 var1 (next (getnode (read var2 var6)))))))
(assert (forall ((var0 Int) (var1 Heap) (var2 Addr) (var3 Addr) (var4 Int) (var5 Int) (var6 Int) (var7 Int)) (or (not (inv_main17 var1 var7 var4 var0 var5 var2 var6 var3)) (inv_main23 (write var1 var3 (O_node (node (data (getnode (read var1 var3))) nullAddr))) var7 var4 var0 var5 var2 var6 var3))))
(assert (forall ((var0 Int) (var1 Int) (var2 Int) (var3 Int) (var4 Addr) (var5 Heap) (var6 Addr) (var7 Int) (var8 Int) (var9 Heap) (var10 Heap) (var11 Int) (var12 Int) (var13 Int) (var14 Int) (var15 Int) (var16 Int) (var17 Addr) (var18 Int) (var19 Int) (var20 Addr) (var21 Int) (var22 Int) (var23 node) (var24 Int)) (or (not (and (inv_main10 var10 var14 var19 var1 var12 var17) (and (and (and (not (= nullAddr var6)) (and (and (and (and (and (and (and (and (and (and (= var9 (newHeap (alloc var5 (O_node var23)))) (= var22 var0)) (= var13 var2)) (= var20 var4)) (= var16 var7)) (= var15 var11)) (= var21 3)) (= var8 var7)) (= var3 var11)) (= var18 var7)) (= var6 (newAddr (alloc var5 (O_node var23)))))) (and (and (and (and (and (= var5 var10) (= var0 var14)) (= var2 var19)) (= var4 var17)) (= var7 5)) (and (and (and (and (<= 0 (+ (+ 2 (* (- 1) (+ var14 (* (- 2) var24)))) (- 1))) (<= 0 (+ (+ 2 (* 1 (+ var14 (* (- 2) var24)))) (- 1)))) (or (not (<= 0 (+ (+ var14 (* (- 2) var24)) (- 1)))) (<= 0 (+ var14 (- 1))))) (or (not (<= 0 (+ (* (- 1) (+ var14 (* (- 2) var24))) (- 1)))) (<= 0 (+ (* (- 1) var14) (- 1))))) (= var11 var24)))) (not (<= 0 (+ var1 (- 1))))))) (inv_main38 var9 var22 var13 var20 var16 var15 var21 var8 var3 var18 var6))))
(assert (forall ((var0 Addr) (var1 Int) (var2 Heap) (var3 Int) (var4 Int) (var5 Int) (var6 Addr) (var7 Addr) (var8 Int)) (or (not (and (inv_main74 var2 var8 var4 var0 var3 var5 var6 var1 var7) (= var4 (data (getnode (read var2 var6)))))) (inv_main71 var2 var8 var4 var0 var3 var5 var7 (+ var1 1)))))
(assert (forall ((var0 Int) (var1 Heap) (var2 Int) (var3 Int) (var4 Addr) (var5 Heap) (var6 Int) (var7 Addr) (var8 Int) (var9 Int) (var10 Int) (var11 Addr) (var12 Addr) (var13 Int) (var14 Int) (var15 Int) (var16 Addr)) (or (not (and (inv_main66 var5 var10 var15 var11 var14 var6 var7 var0) (and (and (and (and (and (and (and (and (= var1 var5) (= var13 var10)) (= var9 var15)) (= var16 var11)) (= var3 var14)) (= var8 var6)) (= var4 var7)) (= var2 var0)) (= var12 (next (getnode (read var5 var7))))))) (inv_main71 var1 var13 var9 var16 var3 var8 var12 (+ var2 1)))))
(assert (forall ((var0 Addr) (var1 Int) (var2 Heap) (var3 Int) (var4 Int) (var5 Int) (var6 Addr) (var7 Int)) (or (not (inv_main60 var2 var7 var4 var0 var3 var5 var6 var1)) (inv_main61 var2 var7 var4 var0 var3 var5 var6 var1 (next (getnode (read var2 var6)))))))
(assert (forall ((var0 Addr) (var1 Int) (var2 Heap) (var3 Int) (var4 Int) (var5 Int) (var6 Addr) (var7 Int)) (or (not (and (inv_main71 var2 var7 var4 var0 var3 var5 var6 var1) (not (= var6 nullAddr)))) (inv_main73 var2 var7 var4 var0 var3 var5 var6 var1))))
(assert (forall ((var0 Addr) (var1 Addr) (var2 Int) (var3 Int) (var4 Addr) (var5 Heap) (var6 Addr) (var7 Int) (var8 Int) (var9 Int) (var10 Int) (var11 Int)) (or (not (and (inv_main48 var5 var11 var9 var0 var8 var10 var7 var3 var2 var6 var1 var4) (<= 0 (+ var2 (- 1))))) (inv_main51 var5 var11 var9 var0 var8 var10 var7 var3 var2 var6 var4 var4))))
(assert (forall ((var0 Addr) (var1 Addr) (var2 Int) (var3 Int) (var4 Addr) (var5 Heap) (var6 Addr) (var7 Int) (var8 Int) (var9 Int) (var10 Int) (var11 Int)) (or (not (inv_main55 var5 var11 var9 var0 var8 var10 var7 var3 var2 var6 var1 var4)) (inv_main54 (write var5 var1 (O_node (node (data (getnode (read var5 var1))) var6))) var11 var9 var0 var8 var10 var7 var3 var2 var6 var1 var4))))
(assert (forall ((var0 Addr) (var1 Addr) (var2 Int) (var3 Int) (var4 Addr) (var5 Heap) (var6 Addr) (var7 Int) (var8 Int) (var9 Int) (var10 Int) (var11 Int)) (or (not (and (inv_main48 var5 var11 var9 var0 var8 var10 var7 var3 var2 var6 var1 var4) (and (= var1 nullAddr) (not (<= 0 (+ var2 (- 1))))))) (inv_main54 var5 var11 var9 var6 var8 var10 var7 var3 var2 var6 var1 var4))))
(assert (forall ((var0 Int) (var1 Addr) (var2 Int) (var3 Int) (var4 Heap) (var5 Int) (var6 Int) (var7 Addr) (var8 Int) (var9 Int) (var10 Addr) (var11 Int) (var12 Heap) (var13 Addr)) (or (not (and (inv_main25 var4 var8 var11 var0 var6 var10 var13) (and (and (and (and (and (and (= var12 (write var4 var13 (O_node (node (data (getnode (read var4 var13))) var10)))) (= var3 var8)) (= var9 var11)) (= var5 var0)) (= var2 var6)) (= var7 var10)) (= var1 var13)))) (inv_main10 var12 var3 var9 (+ var5 (- 1)) var2 var1))))
(assert (forall ((var0 Heap) (var1 Heap) (var2 Int) (var3 Int) (var4 Addr) (var5 Int) (var6 Int) (var7 Int) (var8 Int)) (or (not (and (inv_main4 var1 var7 var2) (and (and (and (and (and (= var0 var1) (= var3 var7)) (= var5 var2)) (= var8 var7)) (= var6 var2)) (= var4 nullAddr)))) (inv_main10 var0 var3 var5 var8 var6 var4))))
(assert (forall ((var0 Int) (var1 Heap) (var2 Addr) (var3 Addr) (var4 Int) (var5 Int) (var6 Int) (var7 Int)) (not (and (inv_main17 var1 var7 var4 var0 var5 var2 var6 var3) (not (is-O_node (read var1 var3)))))))
(assert (forall ((var0 Int) (var1 Heap) (var2 Addr) (var3 Addr) (var4 Int) (var5 Int) (var6 Int) (var7 Int)) (not (and (inv_main23 var1 var7 var4 var0 var5 var2 var6 var3) (not (is-O_node (read var1 var3)))))))
(assert (forall ((var0 Int) (var1 Heap) (var2 Addr) (var3 Int) (var4 Int) (var5 Addr) (var6 Int)) (not (and (inv_main25 var1 var6 var3 var0 var4 var2 var5) (not (is-O_node (read var1 var5)))))))
(assert (forall ((var0 Addr) (var1 Int) (var2 Int) (var3 Int) (var4 Heap) (var5 Int) (var6 Int) (var7 Int) (var8 Int) (var9 Addr) (var10 Int)) (not (and (inv_main38 var4 var10 var7 var0 var6 var8 var5 var3 var2 var1 var9) (not (is-O_node (read var4 var9)))))))
(assert (forall ((var0 Addr) (var1 Int) (var2 Int) (var3 Int) (var4 Heap) (var5 Int) (var6 Int) (var7 Int) (var8 Int) (var9 Addr) (var10 Int)) (not (and (inv_main44 var4 var10 var7 var0 var6 var8 var5 var3 var2 var1 var9) (not (is-O_node (read var4 var9)))))))
(assert (forall ((var0 Addr) (var1 Addr) (var2 Int) (var3 Int) (var4 Addr) (var5 Heap) (var6 Addr) (var7 Int) (var8 Int) (var9 Int) (var10 Int) (var11 Int)) (not (and (inv_main51 var5 var11 var9 var0 var8 var10 var7 var3 var2 var6 var1 var4) (not (is-O_node (read var5 var4)))))))
(assert (forall ((var0 Addr) (var1 Addr) (var2 Int) (var3 Int) (var4 Addr) (var5 Heap) (var6 Addr) (var7 Int) (var8 Int) (var9 Int) (var10 Int) (var11 Int)) (not (and (inv_main55 var5 var11 var9 var0 var8 var10 var7 var3 var2 var6 var1 var4) (not (is-O_node (read var5 var1)))))))
(assert (forall ((var0 Addr) (var1 Addr) (var2 Int) (var3 Int) (var4 Addr) (var5 Heap) (var6 Addr) (var7 Int) (var8 Int) (var9 Int) (var10 Int) (var11 Int)) (not (and (inv_main54 var5 var11 var9 var0 var8 var10 var7 var3 var2 var6 var1 var4) (not (is-O_node (read var5 var6)))))))
(assert (forall ((var0 Addr) (var1 Int) (var2 Heap) (var3 Int) (var4 Int) (var5 Int) (var6 Addr) (var7 Int)) (not (and (inv_main60 var2 var7 var4 var0 var3 var5 var6 var1) (not (is-O_node (read var2 var6)))))))
(assert (forall ((var0 Addr) (var1 Int) (var2 Heap) (var3 Int) (var4 Int) (var5 Int) (var6 Addr) (var7 Addr) (var8 Int)) (not (and (inv_main61 var2 var8 var4 var0 var3 var5 var6 var1 var7) (not (is-O_node (read var2 var6)))))))
(assert (forall ((var0 Addr) (var1 Int) (var2 Heap) (var3 Int) (var4 Int) (var5 Int) (var6 Addr) (var7 Int)) (not (and (inv_main59 var2 var7 var4 var0 var3 var5 var6 var1) (not (is-O_node (read var2 var6)))))))
(assert (forall ((var0 Addr) (var1 Int) (var2 Heap) (var3 Int) (var4 Int) (var5 Int) (var6 Addr) (var7 Int)) (not (and (inv_main66 var2 var7 var4 var0 var3 var5 var6 var1) (not (is-O_node (read var2 var6)))))))
(assert (forall ((var0 Addr) (var1 Int) (var2 Heap) (var3 Int) (var4 Int) (var5 Int) (var6 Addr) (var7 Int)) (not (and (inv_main73 var2 var7 var4 var0 var3 var5 var6 var1) (not (is-O_node (read var2 var6)))))))
(assert (forall ((var0 Addr) (var1 Int) (var2 Heap) (var3 Int) (var4 Int) (var5 Int) (var6 Addr) (var7 Addr) (var8 Int)) (not (and (inv_main74 var2 var8 var4 var0 var3 var5 var6 var1 var7) (not (is-O_node (read var2 var6)))))))
(assert (forall ((var0 Addr) (var1 Addr) (var2 Int) (var3 Heap) (var4 Int) (var5 Int) (var6 Int) (var7 Addr) (var8 Int)) (not (and (inv_main86 var3 var8 var5 var0 var4 var6 var7 var2 var1) (not (is-O_node (read var3 var1)))))))
(assert (forall ((var0 Addr) (var1 Int) (var2 Heap) (var3 Int) (var4 Int) (var5 Int) (var6 Addr) (var7 Int)) (not (inv_main89 var2 var7 var4 var0 var3 var5 var6 var1))))
(check-sat)
